NAME : prob25a
TYPE : PDTSP
DIMENSION : 51
EDGE_WEIGHT_TYPE : EUC_2D
NODE_COORD_SECTION
1 546 458
2 646 604
3 321 329
4 424 95
5 790 282
6 966 454
7 143 133
8 689 82
9 33 377
10 290 626
11 230 947
12 226 234
13 966 214
14 208 358
15 679 741
16 82 113
17 701 422
18 753 686
19 685 940
20 486 592
21 983 372
22 894 994
23 352 589
24 658 123
25 256 612
26 936 36
27 33 420
28 113 876
29 556 253
30 788 195
31 958 75
32 486 199
33 926 382
34 746 407
35 119 795
36 786 723
37 77 65
38 698 510
39 433 919
40 864 441
41 304 290
42 412 713
43 33 449
44 781 261
45 269 459
46 902 508
47 93 731
48 737 854
49 80 679
50 680 660
51 9 49
PICKUP_AND_DELIVERY_SECTION
1 0 0 0 0 0 0
2 0 0 0 0 27 0
3 0 0 0 0 28 0
4 0 0 0 0 29 0
5 0 0 0 0 30 0
6 0 0 0 0 31 0
7 0 0 0 0 32 0
8 0 0 0 0 33 0
9 0 0 0 0 34 0
10 0 0 0 0 35 0
11 0 0 0 0 36 0
12 0 0 0 0 37 0
13 0 0 0 0 38 0
14 0 0 0 0 39 0
15 0 0 0 0 40 0
16 0 0 0 0 41 0
17 0 0 0 0 42 0
18 0 0 0 0 43 0
19 0 0 0 0 44 0
20 0 0 0 0 45 0
21 0 0 0 0 46 0
22 0 0 0 0 47 0
23 0 0 0 0 48 0
24 0 0 0 0 49 0
25 0 0 0 0 50 0
26 0 0 0 0 51 0
27 0 0 0 0 0 2
28 0 0 0 0 0 3
29 0 0 0 0 0 4
30 0 0 0 0 0 5
31 0 0 0 0 0 6
32 0 0 0 0 0 7
33 0 0 0 0 0 8
34 0 0 0 0 0 9
35 0 0 0 0 0 10
36 0 0 0 0 0 11
37 0 0 0 0 0 12
38 0 0 0 0 0 13
39 0 0 0 0 0 14
40 0 0 0 0 0 15
41 0 0 0 0 0 16
42 0 0 0 0 0 17
43 0 0 0 0 0 18
44 0 0 0 0 0 19
45 0 0 0 0 0 20
46 0 0 0 0 0 21
47 0 0 0 0 0 22
48 0 0 0 0 0 23
49 0 0 0 0 0 24
50 0 0 0 0 0 25
51 0 0 0 0 0 26
DEPOT_SECTION
1 
-1
EOF
